33D32945 STP File, STP Format Version 1.0

SECTION Comments
Name "shell_n13_d2_s13"
Problem "Euclidean Steiner Tree Problem"
Remark "Generated with STPGenerator. 2 dimensions."
END

SECTION Graph
Nodes 13
END

SECTION Coordinates
DD 0 0.6415806532 -0.7670555817
DD 1 0.5478001431 -0.8366092297
DD 2 -0.7594489075 0.6505669504
DD 3 0.9915371854 0.1298229946
DD 4 0.6286856302 0.7776595517
DD 5 -0.1319928822 -0.9912506641
DD 6 -0.3724200112 0.9280642948
DD 7 -0.3034965626 -0.9528325333
DD 8 0.7667421527 -0.6419551941
DD 9 0.7008068210 -0.7133511054
DD 10 0.7641704456 -0.6450143642
DD 11 0.7244864046 0.6892890900
DD 12 -0.8208694627 -0.5711158597
END
